NAME : axel
COMMENT : Polish major cities
COMMENT : Solution for axel springer 2024 internship challenge
TYPE : TSP
DIMENSION : 16
EDGE_WEIGHT_TYPE : EUC_2D
NODE_COORD_SECTION
1 0 0
2 210 0
3 125.23095 101.18403  # WAW
4 -34.68333 183.75545  # bydgoszcz
5 148.07857 217.35164  # lublin
6 62.91667 95.06573  # gdansk
7 107 181.85709  # lodz
8 53.06667 262.6936  # poznan
9 -52.17857 363.27179  # szczecin
10 37.68571 350.9826  # gorzow
11 108.18095 317.05186  # wroclaw
12 116.55 330.02439  # opole
13 115.41667 294.16831  # katowice
14 137.19048 236.02494  # kielce
15 147.09524 320.89249  # krakow
16 161.25 316.26482  # rzeszow
EOF
